proyfinal/src/viki/013/experimentInOfficeAgust.take6.output/e01bd6f3-1ff8-4872-b153-2f53972e7b22.als.out
Reading from standard input... Use '--help' for help.
============================[ Problem Statistics ]=============================
|                                                                             |
|  Number of variables:         87638                                         |
|  Number of clauses:          161767                                         |
|  Parse time:                   0.03 s                                       |
|                                                                             |
============================[ Search Statistics ]==============================
| Conflicts |          ORIGINAL         |          LEARNT          | Progress |
|           |    Vars  Clauses Literals |    Limit  Clauses Lit/Cl |          |
===============================================================================
|       100 |   62752   106528   266100 |    39060      100      8 | 28.396 % |
|       250 |   62752   106528   266100 |    42966      250     16 | 28.396 % |
|       475 |   62752   106528   266100 |    47262      475     26 | 28.396 % |
|       812 |   62752   106528   266100 |    51989      812     54 | 28.396 % |
|      1318 |   62752   106528   266100 |    57188     1318     64 | 28.396 % |
|      2077 |   62702   106324   265622 |    62906     2075     65 | 28.453 % |
|      3216 |   62702   106324   265622 |    69197     3214     77 | 28.453 % |
|      4924 |   62649   106108   265122 |    76117     4919     80 | 28.514 % |
|      7486 |   62532   105644   264013 |    83729     7474     85 | 28.647 % |
|     11330 |   62397   105129   262714 |    92102    11246     93 | 28.802 % |
|     17096 |   62314   104811   261937 |   101312    17001     98 | 28.896 % |
===============================================================================
restarts              : 63
conflicts             : 17405          (6658 /sec)
decisions             : 58395          (0.00 % random) (22338 /sec)
propagations          : 22472465       (8596497 /sec)
conflict literals     : 1707540        (53.62 % deleted)
Memory used           : 35.72 MB
CPU time              : 2.61414 s

UNSATISFIABLE
